(set-option :produce-models true)
(set-logic QF_LRA)
(set-info :notes | Strip-packing problem.|)
(declare-fun x0 () Real)
(declare-fun y0 () Real)
(declare-fun x1 () Real)
(declare-fun y1 () Real)
(declare-fun x2 () Real)
(declare-fun y2 () Real)
(declare-fun x3 () Real)
(declare-fun y3 () Real)
(declare-fun x4 () Real)
(declare-fun y4 () Real)
(declare-fun x5 () Real)
(declare-fun y5 () Real)
(declare-fun x6 () Real)
(declare-fun y6 () Real)
(declare-fun x7 () Real)
(declare-fun y7 () Real)
(declare-fun x8 () Real)
(declare-fun y8 () Real)
(declare-fun x9 () Real)
(declare-fun y9 () Real)
(declare-fun x10 () Real)
(declare-fun y10 () Real)
(declare-fun x11 () Real)
(declare-fun y11 () Real)
(declare-fun z () Real)
(declare-fun c () Real)
(assert (and (= c z) (and (>= x0 0) 
(and (>= y0 0) 
(and (>= x1 0) 
(and (>= y1 0) 
(and (>= x2 0) 
(and (>= y2 0) 
(and (>= x3 0) 
(and (>= y3 0) 
(and (>= x4 0) 
(and (>= y4 0) 
(and (>= x5 0) 
(and (>= y5 0) 
(and (>= x6 0) 
(and (>= y6 0) 
(and (>= x7 0) 
(and (>= y7 0) 
(and (>= x8 0) 
(and (>= y8 0) 
(and (>= x9 0) 
(and (>= y9 0) 
(and (>= x10 0) 
(and (>= y10 0) 
(and (>= x11 0) 
(and (>= y11 0) 
(and (>= z 0) 
(and (>= c 0) 
(and (<= (+ x0 0.141813383) z) 
(and (<= 0.9632075659 y0) 
(and (<= y0 1.73205080757) 
(and (<= x0 (- 3.3184076703 0.141813383)) 
(and (>= x0 0) 
(and (<= (+ x1 0.7711852183) z) 
(and (<= 0.8618015174 y1) 
(and (<= y1 1.73205080757) 
(and (<= x1 (- 3.3184076703 0.7711852183)) 
(and (>= x1 0) 
(and (<= (+ x2 0.2575571384) z) 
(and (<= 0.8307629299 y2) 
(and (<= y2 1.73205080757) 
(and (<= x2 (- 3.3184076703 0.2575571384)) 
(and (>= x2 0) 
(and (<= (+ x3 0.2531979596) z) 
(and (<= 0.7390019679 y3) 
(and (<= y3 1.73205080757) 
(and (<= x3 (- 3.3184076703 0.2531979596)) 
(and (>= x3 0) 
(and (<= (+ x4 0.6397628767) z) 
(and (<= 0.5590836764 y4) 
(and (<= y4 1.73205080757) 
(and (<= x4 (- 3.3184076703 0.6397628767)) 
(and (>= x4 0) 
(and (<= (+ x5 0.0630186966) z) 
(and (<= 0.4794401723 y5) 
(and (<= y5 1.73205080757) 
(and (<= x5 (- 3.3184076703 0.0630186966)) 
(and (>= x5 0) 
(and (<= (+ x6 0.4924598577) z) 
(and (<= 0.3529710632 y6) 
(and (<= y6 1.73205080757) 
(and (<= x6 (- 3.3184076703 0.4924598577)) 
(and (>= x6 0) 
(and (<= (+ x7 0.6817404217) z) 
(and (<= 0.3397291869 y7) 
(and (<= y7 1.73205080757) 
(and (<= x7 (- 3.3184076703 0.6817404217)) 
(and (>= x7 0) 
(and (<= (+ x8 0.5435127802) z) 
(and (<= 0.2885952407 y8) 
(and (<= y8 1.73205080757) 
(and (<= x8 (- 3.3184076703 0.5435127802)) 
(and (>= x8 0) 
(and (<= (+ x9 0.2661598291) z) 
(and (<= 0.2719675673 y9) 
(and (<= y9 1.73205080757) 
(and (<= x9 (- 3.3184076703 0.2661598291)) 
(and (>= x9 0) 
(and (<= (+ x10 0.3828585233) z) 
(and (<= 0.1098614468 y10) 
(and (<= y10 1.73205080757) 
(and (<= x10 (- 3.3184076703 0.3828585233)) 
(and (>= x10 0) 
(and (<= (+ x11 0.830707811) z) 
(and (<= 0.0030241285 y11) 
(and (<= y11 1.73205080757) 
(and (<= x11 (- 3.3184076703 0.830707811)) 
(and (>= x11 0) 
(and (<= c 3.3184076703) 
(and (or (<= (+ x0 0.141813383) x1) (or (<= (+ x1 0.7711852183) x0) (or (>= (- y0 0.9632075659) y1) (or (>= (- y1 0.8618015174) y0))))) 
(and (or (<= (+ x0 0.141813383) x2) (or (<= (+ x2 0.2575571384) x0) (or (>= (- y0 0.9632075659) y2) (or (>= (- y2 0.8307629299) y0))))) 
(and (or (<= (+ x0 0.141813383) x3) (or (<= (+ x3 0.2531979596) x0) (or (>= (- y0 0.9632075659) y3) (or (>= (- y3 0.7390019679) y0))))) 
(and (or (<= (+ x0 0.141813383) x4) (or (<= (+ x4 0.6397628767) x0) (or (>= (- y0 0.9632075659) y4) (or (>= (- y4 0.5590836764) y0))))) 
(and (or (<= (+ x0 0.141813383) x5) (or (<= (+ x5 0.0630186966) x0) (or (>= (- y0 0.9632075659) y5) (or (>= (- y5 0.4794401723) y0))))) 
(and (or (<= (+ x0 0.141813383) x6) (or (<= (+ x6 0.4924598577) x0) (or (>= (- y0 0.9632075659) y6) (or (>= (- y6 0.3529710632) y0))))) 
(and (or (<= (+ x0 0.141813383) x7) (or (<= (+ x7 0.6817404217) x0) (or (>= (- y0 0.9632075659) y7) (or (>= (- y7 0.3397291869) y0))))) 
(and (or (<= (+ x0 0.141813383) x8) (or (<= (+ x8 0.5435127802) x0) (or (>= (- y0 0.9632075659) y8) (or (>= (- y8 0.2885952407) y0))))) 
(and (or (<= (+ x0 0.141813383) x9) (or (<= (+ x9 0.2661598291) x0) (or (>= (- y0 0.9632075659) y9) (or (>= (- y9 0.2719675673) y0))))) 
(and (or (<= (+ x0 0.141813383) x10) (or (<= (+ x10 0.3828585233) x0) (or (>= (- y0 0.9632075659) y10) (or (>= (- y10 0.1098614468) y0))))) 
(and (or (<= (+ x0 0.141813383) x11) (or (<= (+ x11 0.830707811) x0) (or (>= (- y0 0.9632075659) y11) (or (>= (- y11 0.0030241285) y0))))) 
(and (or (<= (+ x1 0.7711852183) x2) (or (<= (+ x2 0.2575571384) x1) (or (>= (- y1 0.8618015174) y2) (or (>= (- y2 0.8307629299) y1))))) 
(and (or (<= (+ x1 0.7711852183) x3) (or (<= (+ x3 0.2531979596) x1) (or (>= (- y1 0.8618015174) y3) (or (>= (- y3 0.7390019679) y1))))) 
(and (or (<= (+ x1 0.7711852183) x4) (or (<= (+ x4 0.6397628767) x1) (or (>= (- y1 0.8618015174) y4) (or (>= (- y4 0.5590836764) y1))))) 
(and (or (<= (+ x1 0.7711852183) x5) (or (<= (+ x5 0.0630186966) x1) (or (>= (- y1 0.8618015174) y5) (or (>= (- y5 0.4794401723) y1))))) 
(and (or (<= (+ x1 0.7711852183) x6) (or (<= (+ x6 0.4924598577) x1) (or (>= (- y1 0.8618015174) y6) (or (>= (- y6 0.3529710632) y1))))) 
(and (or (<= (+ x1 0.7711852183) x7) (or (<= (+ x7 0.6817404217) x1) (or (>= (- y1 0.8618015174) y7) (or (>= (- y7 0.3397291869) y1))))) 
(and (or (<= (+ x1 0.7711852183) x8) (or (<= (+ x8 0.5435127802) x1) (or (>= (- y1 0.8618015174) y8) (or (>= (- y8 0.2885952407) y1))))) 
(and (or (<= (+ x1 0.7711852183) x9) (or (<= (+ x9 0.2661598291) x1) (or (>= (- y1 0.8618015174) y9) (or (>= (- y9 0.2719675673) y1))))) 
(and (or (<= (+ x1 0.7711852183) x10) (or (<= (+ x10 0.3828585233) x1) (or (>= (- y1 0.8618015174) y10) (or (>= (- y10 0.1098614468) y1))))) 
(and (or (<= (+ x1 0.7711852183) x11) (or (<= (+ x11 0.830707811) x1) (or (>= (- y1 0.8618015174) y11) (or (>= (- y11 0.0030241285) y1))))) 
(and (or (<= (+ x2 0.2575571384) x3) (or (<= (+ x3 0.2531979596) x2) (or (>= (- y2 0.8307629299) y3) (or (>= (- y3 0.7390019679) y2))))) 
(and (or (<= (+ x2 0.2575571384) x4) (or (<= (+ x4 0.6397628767) x2) (or (>= (- y2 0.8307629299) y4) (or (>= (- y4 0.5590836764) y2))))) 
(and (or (<= (+ x2 0.2575571384) x5) (or (<= (+ x5 0.0630186966) x2) (or (>= (- y2 0.8307629299) y5) (or (>= (- y5 0.4794401723) y2))))) 
(and (or (<= (+ x2 0.2575571384) x6) (or (<= (+ x6 0.4924598577) x2) (or (>= (- y2 0.8307629299) y6) (or (>= (- y6 0.3529710632) y2))))) 
(and (or (<= (+ x2 0.2575571384) x7) (or (<= (+ x7 0.6817404217) x2) (or (>= (- y2 0.8307629299) y7) (or (>= (- y7 0.3397291869) y2))))) 
(and (or (<= (+ x2 0.2575571384) x8) (or (<= (+ x8 0.5435127802) x2) (or (>= (- y2 0.8307629299) y8) (or (>= (- y8 0.2885952407) y2))))) 
(and (or (<= (+ x2 0.2575571384) x9) (or (<= (+ x9 0.2661598291) x2) (or (>= (- y2 0.8307629299) y9) (or (>= (- y9 0.2719675673) y2))))) 
(and (or (<= (+ x2 0.2575571384) x10) (or (<= (+ x10 0.3828585233) x2) (or (>= (- y2 0.8307629299) y10) (or (>= (- y10 0.1098614468) y2))))) 
(and (or (<= (+ x2 0.2575571384) x11) (or (<= (+ x11 0.830707811) x2) (or (>= (- y2 0.8307629299) y11) (or (>= (- y11 0.0030241285) y2))))) 
(and (or (<= (+ x3 0.2531979596) x4) (or (<= (+ x4 0.6397628767) x3) (or (>= (- y3 0.7390019679) y4) (or (>= (- y4 0.5590836764) y3))))) 
(and (or (<= (+ x3 0.2531979596) x5) (or (<= (+ x5 0.0630186966) x3) (or (>= (- y3 0.7390019679) y5) (or (>= (- y5 0.4794401723) y3))))) 
(and (or (<= (+ x3 0.2531979596) x6) (or (<= (+ x6 0.4924598577) x3) (or (>= (- y3 0.7390019679) y6) (or (>= (- y6 0.3529710632) y3))))) 
(and (or (<= (+ x3 0.2531979596) x7) (or (<= (+ x7 0.6817404217) x3) (or (>= (- y3 0.7390019679) y7) (or (>= (- y7 0.3397291869) y3))))) 
(and (or (<= (+ x3 0.2531979596) x8) (or (<= (+ x8 0.5435127802) x3) (or (>= (- y3 0.7390019679) y8) (or (>= (- y8 0.2885952407) y3))))) 
(and (or (<= (+ x3 0.2531979596) x9) (or (<= (+ x9 0.2661598291) x3) (or (>= (- y3 0.7390019679) y9) (or (>= (- y9 0.2719675673) y3))))) 
(and (or (<= (+ x3 0.2531979596) x10) (or (<= (+ x10 0.3828585233) x3) (or (>= (- y3 0.7390019679) y10) (or (>= (- y10 0.1098614468) y3))))) 
(and (or (<= (+ x3 0.2531979596) x11) (or (<= (+ x11 0.830707811) x3) (or (>= (- y3 0.7390019679) y11) (or (>= (- y11 0.0030241285) y3))))) 
(and (or (<= (+ x4 0.6397628767) x5) (or (<= (+ x5 0.0630186966) x4) (or (>= (- y4 0.5590836764) y5) (or (>= (- y5 0.4794401723) y4))))) 
(and (or (<= (+ x4 0.6397628767) x6) (or (<= (+ x6 0.4924598577) x4) (or (>= (- y4 0.5590836764) y6) (or (>= (- y6 0.3529710632) y4))))) 
(and (or (<= (+ x4 0.6397628767) x7) (or (<= (+ x7 0.6817404217) x4) (or (>= (- y4 0.5590836764) y7) (or (>= (- y7 0.3397291869) y4))))) 
(and (or (<= (+ x4 0.6397628767) x8) (or (<= (+ x8 0.5435127802) x4) (or (>= (- y4 0.5590836764) y8) (or (>= (- y8 0.2885952407) y4))))) 
(and (or (<= (+ x4 0.6397628767) x9) (or (<= (+ x9 0.2661598291) x4) (or (>= (- y4 0.5590836764) y9) (or (>= (- y9 0.2719675673) y4))))) 
(and (or (<= (+ x4 0.6397628767) x10) (or (<= (+ x10 0.3828585233) x4) (or (>= (- y4 0.5590836764) y10) (or (>= (- y10 0.1098614468) y4))))) 
(and (or (<= (+ x4 0.6397628767) x11) (or (<= (+ x11 0.830707811) x4) (or (>= (- y4 0.5590836764) y11) (or (>= (- y11 0.0030241285) y4))))) 
(and (or (<= (+ x5 0.0630186966) x6) (or (<= (+ x6 0.4924598577) x5) (or (>= (- y5 0.4794401723) y6) (or (>= (- y6 0.3529710632) y5))))) 
(and (or (<= (+ x5 0.0630186966) x7) (or (<= (+ x7 0.6817404217) x5) (or (>= (- y5 0.4794401723) y7) (or (>= (- y7 0.3397291869) y5))))) 
(and (or (<= (+ x5 0.0630186966) x8) (or (<= (+ x8 0.5435127802) x5) (or (>= (- y5 0.4794401723) y8) (or (>= (- y8 0.2885952407) y5))))) 
(and (or (<= (+ x5 0.0630186966) x9) (or (<= (+ x9 0.2661598291) x5) (or (>= (- y5 0.4794401723) y9) (or (>= (- y9 0.2719675673) y5))))) 
(and (or (<= (+ x5 0.0630186966) x10) (or (<= (+ x10 0.3828585233) x5) (or (>= (- y5 0.4794401723) y10) (or (>= (- y10 0.1098614468) y5))))) 
(and (or (<= (+ x5 0.0630186966) x11) (or (<= (+ x11 0.830707811) x5) (or (>= (- y5 0.4794401723) y11) (or (>= (- y11 0.0030241285) y5))))) 
(and (or (<= (+ x6 0.4924598577) x7) (or (<= (+ x7 0.6817404217) x6) (or (>= (- y6 0.3529710632) y7) (or (>= (- y7 0.3397291869) y6))))) 
(and (or (<= (+ x6 0.4924598577) x8) (or (<= (+ x8 0.5435127802) x6) (or (>= (- y6 0.3529710632) y8) (or (>= (- y8 0.2885952407) y6))))) 
(and (or (<= (+ x6 0.4924598577) x9) (or (<= (+ x9 0.2661598291) x6) (or (>= (- y6 0.3529710632) y9) (or (>= (- y9 0.2719675673) y6))))) 
(and (or (<= (+ x6 0.4924598577) x10) (or (<= (+ x10 0.3828585233) x6) (or (>= (- y6 0.3529710632) y10) (or (>= (- y10 0.1098614468) y6))))) 
(and (or (<= (+ x6 0.4924598577) x11) (or (<= (+ x11 0.830707811) x6) (or (>= (- y6 0.3529710632) y11) (or (>= (- y11 0.0030241285) y6))))) 
(and (or (<= (+ x7 0.6817404217) x8) (or (<= (+ x8 0.5435127802) x7) (or (>= (- y7 0.3397291869) y8) (or (>= (- y8 0.2885952407) y7))))) 
(and (or (<= (+ x7 0.6817404217) x9) (or (<= (+ x9 0.2661598291) x7) (or (>= (- y7 0.3397291869) y9) (or (>= (- y9 0.2719675673) y7))))) 
(and (or (<= (+ x7 0.6817404217) x10) (or (<= (+ x10 0.3828585233) x7) (or (>= (- y7 0.3397291869) y10) (or (>= (- y10 0.1098614468) y7))))) 
(and (or (<= (+ x7 0.6817404217) x11) (or (<= (+ x11 0.830707811) x7) (or (>= (- y7 0.3397291869) y11) (or (>= (- y11 0.0030241285) y7))))) 
(and (or (<= (+ x8 0.5435127802) x9) (or (<= (+ x9 0.2661598291) x8) (or (>= (- y8 0.2885952407) y9) (or (>= (- y9 0.2719675673) y8))))) 
(and (or (<= (+ x8 0.5435127802) x10) (or (<= (+ x10 0.3828585233) x8) (or (>= (- y8 0.2885952407) y10) (or (>= (- y10 0.1098614468) y8))))) 
(and (or (<= (+ x8 0.5435127802) x11) (or (<= (+ x11 0.830707811) x8) (or (>= (- y8 0.2885952407) y11) (or (>= (- y11 0.0030241285) y8))))) 
(and (or (<= (+ x9 0.2661598291) x10) (or (<= (+ x10 0.3828585233) x9) (or (>= (- y9 0.2719675673) y10) (or (>= (- y10 0.1098614468) y9))))) 
(and (or (<= (+ x9 0.2661598291) x11) (or (<= (+ x11 0.830707811) x9) (or (>= (- y9 0.2719675673) y11) (or (>= (- y11 0.0030241285) y9))))) 
(and (or (<= (+ x10 0.3828585233) x11) (or (<= (+ x11 0.830707811) x10) (or (>= (- y10 0.1098614468) y11) (or (>= (- y11 0.0030241285) y10))))) )))))))))))))))))))))))))))))))))))))))))))))))))))))))))))))))))))))))))))))))))))))))))))))))))))))))))))))))))))))))))))))))))))))))))))))))))))))))))))
(minimize c)
(check-sat)
(get-objectives)
(exit)
